20180515 300 6000 0 0
20170427 115 0 0 0
20161027 146 0 0 0
20150429 120 0 0 0
20140429 100 0 0 0
20130523 100 0 0 0
20120607 100 0 0 0
20110517 300 10000 0 0
20090527 200 0 0 0
20081112 200 0 0 0
20080703 200 0 0 0
20070613 200 0 0 0
